* #variable= 48 #constraint= 3 
+1 x1 -1 x25 +2 x2 -2 x26 +4 x3 -4 x27 +8 x4 -8 x28 +16 x5 -16 x29 +32 x6 -32 x30 +64 x7 -64 x31 +128 x8 -128 x32 +256 x9 -256 x33 +512 x10 -512 x34 +1024 x11 -1024 x35 +2048 x12 -2048 x36 +4096 x13 -4096 x37 +8192 x14 -8192 x38 +16384 x15 -16384 x39 +32768 x16 -32768 x40 +65536 x17 -65536 x41 +131072 x18 -131072 x42 +262144 x19 -262144 x43 +524288 x20 -524288 x44 +1048576 x21 -1048576 x45 +2097152 x22 -2097152 x46 +4194304 x23 -4194304 x47 +8388608 x24 -8388608 x48 = 0 ;
-1 x1 -1 x25 >= -1; 
+1 x1 +1 x25 >= 1; 
